c Random generated cnf formula, satisfiable: false
p cnf 10 50
1 -10 4 0
-10 -1 -4 0
6 -8 -1 0
6 10 7 0
-4 -7 10 0
-4 -5 -3 0
-4 9 7 0
3 8 -5 0
4 -9 -10 0
-8 10 -7 0
-4 10 -6 0
9 -2 -4 0
6 -5 -8 0
-10 -3 -2 0
-8 -6 -4 0
2 1 -7 0
3 -1 -5 0
-4 -5 -1 0
-3 4 7 0
4 8 -1 0
2 8 1 0
-4 5 -2 0
7 -8 1 0
-10 -9 4 0
-7 -8 9 0
-6 4 -1 0
-9 2 -10 0
3 8 -2 0
-10 9 -5 0
-8 -9 -6 0
-2 -9 5 0
4 8 10 0
9 -1 -5 0
-2 -5 -6 0
-10 1 -4 0
-4 -9 -1 0
-10 -2 -7 0
-2 -5 -4 0
-4 -10 -3 0
-8 -1 -4 0
2 -4 -8 0
-3 6 2 0
-1 5 9 0
6 5 -4 0
9 10 6 0
3 -1 -2 0
-7 -10 1 0
8 -6 -3 0
-3 -8 1 0
-4 6 -3 0
